\ This file has been generated by DOcplex
\ ENCODING=ISO-8859-1
\Problem name: random_problem.lp

Minimize
 obj: 562 x0 + 281 x1 - 286 x2 - 143 x3 - 106 x4 - 53 x5 - 420 x6 - 210 x7
      + 172 x8 + 86 x9 - 88 x10 - 44 x11 + 376 x12 + 188 x13 - 672 x14 - 336 x15
      + 400 x16 + 200 x17 + 328 x18 + 164 x19 + 42 x20 + 21 x21 + 284 x22
      + 142 x23 + [ 608 x0^2 + 608 x0*x1 + 608 x0*x2 + 304 x0*x3 + 112 x0*x4
      + 56 x0*x5 + 80 x0*x6 + 40 x0*x7 + 400 x0*x8 + 200 x0*x9 + 416 x0*x10
      + 208 x0*x11 + 608 x0*x12 + 304 x0*x13 + 768 x0*x14 + 384 x0*x15
      + 320 x0*x16 + 160 x0*x17 + 240 x0*x18 + 120 x0*x19 + 752 x0*x20
      + 376 x0*x21 + 800 x0*x22 + 400 x0*x23 + 152 x1^2 + 304 x1*x2 + 152 x1*x3
      + 56 x1*x4 + 28 x1*x5 + 40 x1*x6 + 20 x1*x7 + 200 x1*x8 + 100 x1*x9
      + 208 x1*x10 + 104 x1*x11 + 304 x1*x12 + 152 x1*x13 + 384 x1*x14
      + 192 x1*x15 + 160 x1*x16 + 80 x1*x17 + 120 x1*x18 + 60 x1*x19
      + 376 x1*x20 + 188 x1*x21 + 400 x1*x22 + 200 x1*x23 + 728 x2^2 + 728 x2*x3
      + 368 x2*x4 + 184 x2*x5 + 496 x2*x6 + 248 x2*x7 + 848 x2*x8 + 424 x2*x9
      + 416 x2*x10 + 208 x2*x11 + 1056 x2*x12 + 528 x2*x13 + 1136 x2*x14
      + 568 x2*x15 + 240 x2*x16 + 120 x2*x17 + 496 x2*x18 + 248 x2*x19
      + 960 x2*x20 + 480 x2*x21 + 1008 x2*x22 + 504 x2*x23 + 182 x3^2
      + 184 x3*x4 + 92 x3*x5 + 248 x3*x6 + 124 x3*x7 + 424 x3*x8 + 212 x3*x9
      + 208 x3*x10 + 104 x3*x11 + 528 x3*x12 + 264 x3*x13 + 568 x3*x14
      + 284 x3*x15 + 120 x3*x16 + 60 x3*x17 + 248 x3*x18 + 124 x3*x19
      + 480 x3*x20 + 240 x3*x21 + 504 x3*x22 + 252 x3*x23 + 344 x4^2 + 344 x4*x5
      + 208 x4*x6 + 104 x4*x7 + 96 x4*x8 + 48 x4*x9 + 336 x4*x10 + 168 x4*x11
      + 48 x4*x12 + 24 x4*x13 + 208 x4*x14 + 104 x4*x15 + 304 x4*x16
      + 152 x4*x17 - 272 x4*x18 - 136 x4*x19 + 416 x4*x20 + 208 x4*x21
      + 288 x4*x22 + 144 x4*x23 + 86 x5^2 + 104 x5*x6 + 52 x5*x7 + 48 x5*x8
      + 24 x5*x9 + 168 x5*x10 + 84 x5*x11 + 24 x5*x12 + 12 x5*x13 + 104 x5*x14
      + 52 x5*x15 + 152 x5*x16 + 76 x5*x17 - 136 x5*x18 - 68 x5*x19 + 208 x5*x20
      + 104 x5*x21 + 144 x5*x22 + 72 x5*x23 + 376 x6^2 + 376 x6*x7 + 48 x6*x8
      + 24 x6*x9 + 240 x6*x10 + 120 x6*x11 + 272 x6*x12 + 136 x6*x13
      + 272 x6*x14 + 136 x6*x15 + 1152 x6*x16 + 576 x6*x17 + 400 x6*x18
      + 200 x6*x19 + 448 x6*x20 + 224 x6*x21 + 640 x6*x22 + 320 x6*x23 + 94 x7^2
      + 24 x7*x8 + 12 x7*x9 + 120 x7*x10 + 60 x7*x11 + 136 x7*x12 + 68 x7*x13
      + 136 x7*x14 + 68 x7*x15 + 576 x7*x16 + 288 x7*x17 + 200 x7*x18
      + 100 x7*x19 + 224 x7*x20 + 112 x7*x21 + 320 x7*x22 + 160 x7*x23
      + 1072 x8^2 + 1072 x8*x9 + 160 x8*x10 + 80 x8*x11 + 816 x8*x12
      + 408 x8*x13 + 640 x8*x14 + 320 x8*x15 - 128 x8*x16 - 64 x8*x17
      + 1088 x8*x18 + 544 x8*x19 + 1072 x8*x20 + 536 x8*x21 + 512 x8*x22
      + 256 x8*x23 + 268 x9^2 + 80 x9*x10 + 40 x9*x11 + 408 x9*x12 + 204 x9*x13
      + 320 x9*x14 + 160 x9*x15 - 64 x9*x16 - 32 x9*x17 + 544 x9*x18
      + 272 x9*x19 + 536 x9*x20 + 268 x9*x21 + 256 x9*x22 + 128 x9*x23
      + 472 x10^2 + 472 x10*x11 + 448 x10*x12 + 224 x10*x13 + 576 x10*x14
      + 288 x10*x15 + 1168 x10*x16 + 584 x10*x17 - 128 x10*x18 - 64 x10*x19
      + 688 x10*x20 + 344 x10*x21 + 768 x10*x22 + 384 x10*x23 + 118 x11^2
      + 224 x11*x12 + 112 x11*x13 + 288 x11*x14 + 144 x11*x15 + 584 x11*x16
      + 292 x11*x17 - 64 x11*x18 - 32 x11*x19 + 344 x11*x20 + 172 x11*x21
      + 384 x11*x22 + 192 x11*x23 + 792 x12^2 + 792 x12*x13 + 1152 x12*x14
      + 576 x12*x15 + 416 x12*x16 + 208 x12*x17 + 832 x12*x18 + 416 x12*x19
      + 688 x12*x20 + 344 x12*x21 + 1024 x12*x22 + 512 x12*x23 + 198 x13^2
      + 576 x13*x14 + 288 x13*x15 + 208 x13*x16 + 104 x13*x17 + 416 x13*x18
      + 208 x13*x19 + 344 x13*x20 + 172 x13*x21 + 512 x13*x22 + 256 x13*x23
      + 1048 x14^2 + 1048 x14*x15 + 320 x14*x16 + 160 x14*x17 + 320 x14*x18
      + 160 x14*x19 + 1104 x14*x20 + 552 x14*x21 + 896 x14*x22 + 448 x14*x23
      + 262 x15^2 + 160 x15*x16 + 80 x15*x17 + 160 x15*x18 + 80 x15*x19
      + 552 x15*x20 + 276 x15*x21 + 448 x15*x22 + 224 x15*x23 + 2528 x16^2
      + 2528 x16*x17 + 768 x16*x18 + 384 x16*x19 + 1520 x16*x20 + 760 x16*x21
      + 1328 x16*x22 + 664 x16*x23 + 632 x17^2 + 384 x17*x18 + 192 x17*x19
      + 760 x17*x20 + 380 x17*x21 + 664 x17*x22 + 332 x17*x23 + 1128 x18^2
      + 1128 x18*x19 + 656 x18*x20 + 328 x18*x21 + 464 x18*x22 + 232 x18*x23
      + 282 x19^2 + 328 x19*x20 + 164 x19*x21 + 232 x19*x22 + 116 x19*x23
      + 1016 x20^2 + 1016 x20*x21 + 1280 x20*x22 + 640 x20*x23 + 254 x21^2
      + 640 x21*x22 + 320 x21*x23 + 1104 x22^2 + 1104 x22*x23 + 276 x23^2 ]/2
Subject To
 c0: 2 x0 + x1 + 2 x2 + x3 + 2 x4 + x5 + 2 x6 + x7 + 2 x8 + x9 + 2 x10 + x11
     + 2 x12 + x13 + 2 x14 + x15 + 2 x16 + x17 + 2 x18 + x19 + 2 x20 + x21
     + 2 x22 + x23 = 3

Bounds
 0 <= x0 <= 1
 0 <= x1 <= 1
 0 <= x2 <= 1
 0 <= x3 <= 1
 0 <= x4 <= 1
 0 <= x5 <= 1
 0 <= x6 <= 1
 0 <= x7 <= 1
 0 <= x8 <= 1
 0 <= x9 <= 1
 0 <= x10 <= 1
 0 <= x11 <= 1
 0 <= x12 <= 1
 0 <= x13 <= 1
 0 <= x14 <= 1
 0 <= x15 <= 1
 0 <= x16 <= 1
 0 <= x17 <= 1
 0 <= x18 <= 1
 0 <= x19 <= 1
 0 <= x20 <= 1
 0 <= x21 <= 1
 0 <= x22 <= 1
 0 <= x23 <= 1

Binaries
 x0 x1 x2 x3 x4 x5 x6 x7 x8 x9 x10 x11 x12 x13 x14 x15 x16 x17 x18 x19 x20 x21
 x22 x23
End
